job_count = 30 ;
duration = [|2, 15, 13, 17, 13, 11|19, 4, 20, 12, 2, 13|16, 20, 18, 9, 16, 3|20, 5, 17, 13, 15, 9|18, 8, 4, 8, 6, 9|10, 17, 8, 4, 5, 8|21, 16, 10, 3, 3, 3|4, 14, 11, 15, 10, 6|21, 9, 12, 5, 8, 13|17, 5, 8, 8, 2, 3|24, 13, 5, 2, 16, 10|3, 20, 13, 13, 8, 3|19, 17, 20, 6, 10, 13|13, 9, 2, 18, 4, 12|22, 7, 17, 3, 4, 2|18, 2, 4, 2, 13, 2|24, 20, 16, 2, 9, 10|14, 10, 4, 12, 11, 11|6, 14, 18, 15, 9, 9|17, 9, 6, 18, 14, 5|2, 12, 17, 2, 6, 9|21, 16, 19, 8, 11, 14|20, 13, 20, 17, 8, 7|23, 14, 18, 16, 5, 4|4, 14, 14, 11, 9, 2|18, 13, 17, 6, 4, 9|12, 16, 17, 16, 13, 10|5, 15, 19, 15, 16, 13|15, 9, 20, 11, 6, 10|11, 14, 10, 5, 4, 11|] ;
machine_count = 6 ;
cost = [|17, 23, 29, 32, 39, 34|29, 22, 35, 23, 24, 44|30, 18, 33, 41, 28, 37|24, 18, 33, 28, 34, 30|22, 22, 19, 22, 41, 43|24, 21, 21, 33, 33, 35|17, 18, 30, 32, 31, 41|17, 19, 33, 23, 30, 30|24, 24, 27, 31, 28, 36|30, 33, 28, 40, 43, 41|29, 23, 34, 33, 31, 27|21, 26, 27, 31, 25, 52|30, 30, 32, 35, 25, 42|21, 30, 37, 41, 38, 27|26, 24, 26, 25, 31, 39|19, 28, 24, 39, 40, 45|28, 23, 21, 25, 35, 36|26, 28, 27, 35, 31, 37|23, 33, 37, 30, 43, 40|23, 17, 37, 25, 45, 41|16, 24, 26, 31, 34, 52|23, 25, 20, 37, 32, 29|27, 25, 23, 38, 36, 31|26, 30, 25, 23, 45, 45|18, 18, 19, 21, 45, 34|26, 17, 31, 34, 24, 45|20, 23, 24, 30, 38, 39|17, 21, 31, 28, 41, 46|21, 21, 37, 39, 31, 33|20, 33, 30, 35, 43, 43|] ;
deadline = [33, 33, 33, 33, 33, 33, 33, 33, 33, 33, 33, 33, 33, 33, 33, 33, 33, 33, 33, 33, 33, 33, 33, 33, 33, 33, 33, 33, 33, 33] ;
release = [0, 0, 0, 0, 0, 0, 0, 0, 0, 0, 0, 0, 0, 0, 0, 0, 0, 0, 0, 0, 0, 0, 0, 0, 0, 0, 0, 0, 0, 0] ;
resource = [|4, 4, 4, 4, 4, 4|7, 7, 7, 7, 7, 7|4, 4, 4, 4, 4, 4|4, 4, 4, 4, 4, 4|7, 7, 7, 7, 7, 7|3, 3, 3, 3, 3, 3|7, 7, 7, 7, 7, 7|5, 5, 5, 5, 5, 5|6, 6, 6, 6, 6, 6|8, 8, 8, 8, 8, 8|7, 7, 7, 7, 7, 7|2, 2, 2, 2, 2, 2|6, 6, 6, 6, 6, 6|6, 6, 6, 6, 6, 6|4, 4, 4, 4, 4, 4|5, 5, 5, 5, 5, 5|4, 4, 4, 4, 4, 4|3, 3, 3, 3, 3, 3|2, 2, 2, 2, 2, 2|2, 2, 2, 2, 2, 2|7, 7, 7, 7, 7, 7|1, 1, 1, 1, 1, 1|6, 6, 6, 6, 6, 6|4, 4, 4, 4, 4, 4|9, 9, 9, 9, 9, 9|1, 1, 1, 1, 1, 1|2, 2, 2, 2, 2, 2|5, 5, 5, 5, 5, 5|5, 5, 5, 5, 5, 5|5, 5, 5, 5, 5, 5|] ;
capacities = [10, 10, 10, 10, 10, 10] ;
